Route #1: 15 20 37 36 59 21
Route #2: 24 49 23 56 43 41 42 22
Route #3: 53 14 11 38
Route #4: 19 54 13 57 5 47 48
Route #5: 16 3 44 32 9 39
Route #6: 30 29 45 27 52 34
Route #7: 10 31 25 55 18 50 51
Route #8: 6 33 1 28 2
Route #9: 17 40 12 58 26
Route #10: 4 46 8 35 7
Cost 784.9448490898459